c SAT problem
p wcnf 858 2350
1 90 -3105 0
1 -90 3060 0
1 105 -3105 0
1 -3120 165 0
1 -3120 120 0
1 3135 -165 0
1 -3135 -75 0
1 -3135 3120 0
1 -3135 -150 0
1 3135 -90 0
1 3150 -196 0
1 -3150 -105 0
1 -3165 166 0
1 -3165 181 0
1 -120 -121 0
1 -150 151 0
1 -165 -3015 0
1 -165 3090 0
1 -3060 -3075 0
1 -3060 135 0
1 3060 180 0
1 3060 -3061 0
1 3060 255 0
1 3075 -3076 0
1 -3075 120 0
1 -3090 -135 0
1 3090 -240 0
1 -3090 -181 0
1 -3090 -90 0
1 -3105 -196 0
1 -3105 3090 0
1 -3105 -150 0
1 -3105 90 0
1 180 3075 0
1 180 3030 0
1 -195 3045 0
1 195 -3030 0
1 210 3075 0
1 210 -3045 0
1 -210 3060 0
1 -225 3000 0
1 -3000 195 0
1 -3000 -3015 0
1 3000 -3001 0
1 3015 -225 0
1 3015 210 0
1 -3015 -150 0
1 3030 -225 0
1 3030 -300 0
1 -3030 -240 0
1 3030 285 0
1 3045 -195 0
1 -3045 270 0
1 -3045 285 0
1 -61 62 0
1 76 3300 0
1 76 61 0
1 -91 -3330 0
1 -91 3240 0
1 -91 -90 0
1 106 3300 0
1 3300 197 0
1 3300 136 0
1 -3315 76 0
1 3315 3316 0
1 3315 61 0
1 3330 -61 0
1 -121 3300 0
1 -121 3165 0
1 -136 135 0
1 -136 3315 0
1 -136 -3165 0
1 151 -3180 0
1 -151 -3150 0
1 166 -167 0
1 166 3240 0
1 166 151 0
1 -3240 -196 0
1 -3240 106 0
1 -3240 121 0
1 -3255 -226 0
1 3255 -166 0
1 -3255 -136 0
1 3255 -91 0
1 -3270 -256 0
1 3270 136 0
1 -3270 106 0
1 3270 121 0
1 -3270 91 0
1 3285 -166 0
1 -3285 3270 0
1 3285 -212 0
1 3285 -182 0
1 181 196 0
1 181 3255 0
1 -181 -3195 0
1 -196 3210 0
1 196 -3255 0
1 211 3240 0
1 211 -3151 0
1 226 -3136 0
1 -226 -3121 0
1 -226 -3090 0
1 -226 -3195 0
1 3180 270 0
1 3180 240 0
1 3180 -151 0
1 -3180 316 0
1 3195 166 0
1 -3195 316 0
1 -3210 -196 0
1 -3210 3211 0
1 -3210 271 0
1 -3210 -241 0
1 3210 -211 0
1 -3210 -286 0
1 -240 3136 0
1 240 -3180 0
1 240 -3166 0
1 240 255 0
1 255 -256 0
1 255 -3075 0
1 270 3151 0
1 270 3121 0
1 270 3166 0
1 285 -3045 0
1 -285 3091 0
1 -285 286 0
1 3121 -3136 0
1 -3121 211 0
1 -3136 226 0
1 -3136 330 0
1 -3136 -300 0
1 -3136 255 0
1 -3151 226 0
1 -3151 -331 0
1 3151 211 0
1 3151 -376 0
1 3151 346 0
1 3151 255 0
1 3166 -270 0
1 -300 -3045 0
1 -315 3106 0
1 315 -3045 0
1 -315 3015 0
1 -315 3030 0
1 330 3106 0
1 330 -331 0
1 330 3091 0
1 -330 -3061 0
1 -345 -3136 0
1 345 3016 0
1 345 -3121 0
1 -345 3061 0
1 345 3031 0
1 -3061 -435 0
1 -3061 -345 0
1 3076 -360 0
1 -3076 -375 0
1 3076 -285 0
1 3091 406 0
1 -3091 -315 0
1 3106 -420 0
1 -3106 -300 0
1 3106 315 0
1 -3106 -285 0
1 -360 3076 0
1 360 -361 0
1 -360 3031 0
1 -390 -3076 0
1 405 3076 0
1 -405 -406 0
1 -405 3001 0
1 3001 -3016 0
1 3001 3000 0
1 -3001 -3002 0
1 3016 3015 0
1 3016 -330 0
1 3016 -3001 0
1 3031 -465 0
1 3046 420 0
1 3046 3047 0
1 -3046 -360 0
1 62 3480 0
1 -77 -3525 0
1 -77 -3480 0
1 -92 3435 0
1 92 -3450 0
1 -107 3525 0
1 -107 3435 0
1 3480 183 0
1 -3480 122 0
1 -3495 -137 0
1 3495 -77 0
1 3495 183 0
1 -3495 -152 0
1 3495 62 0
1 3510 -198 0
1 3510 -138 0
1 -3510 -77 0
1 3510 123 0
1 -3510 62 0
1 -3525 77 0
1 3525 92 0
1 122 -3465 0
1 -122 3420 0
1 137 3465 0
1 -137 3420 0
1 152 3375 0
1 152 3450 0
1 152 -3420 0
1 167 3330 0
1 -167 -168 0
1 167 3345 0
1 -167 3450 0
1 -167 3420 0
1 167 -3390 0
1 3420 -197 0
1 3420 3435 0
1 -3420 -182 0
1 3435 -137 0
1 3450 167 0
1 3450 -107 0
1 -3450 -213 0
1 3450 -152 0
1 -3465 -228 0
1 3465 107 0
1 -3465 213 0
1 -182 3300 0
1 182 197 0
1 182 -3285 0
1 182 -3390 0
1 -197 196 0
1 197 -3270 0
1 197 -3435 0
1 -197 -3375 0
1 -197 3285 0
1 197 182 0
1 -212 -3331 0
1 -212 3301 0
1 -212 -3316 0
1 212 3285 0
1 227 -228 0
1 -227 -3390 0
1 -3360 167 0
1 -3360 -241 0
1 3375 197 0
1 3375 241 0
1 -3390 3391 0
1 -3390 -212 0
1 -3390 182 0
1 3390 317 0
1 -3405 167 0
1 -3405 -3406 0
1 -3405 152 0
1 -241 3360 0
1 256 257 0
1 256 -3285 0
1 271 3360 0
1 271 3271 0
1 -271 -3241 0
1 286 -3360 0
1 286 -3271 0
1 286 -3346 0
1 286 3256 0
1 286 -285 0
1 -3301 -362 0
1 -3316 362 0
1 3316 301 0
1 3316 3315 0
1 3331 -3330 0
1 -3331 227 0
1 -3331 -332 0
1 3331 302 0
1 3331 -317 0
1 3346 256 0
1 3346 227 0
1 -3346 3331 0
1 3346 -332 0
1 3346 347 0
1 301 3271 0
1 301 3151 0
1 -301 -3225 0
1 -301 -3195 0
1 -316 -3180 0
1 -316 -3151 0
1 -316 -3316 0
1 -316 -3256 0
1 -331 3226 0
1 -331 -3286 0
1 346 3271 0
1 -3241 -361 0
1 3241 301 0
1 3241 436 0
1 -3256 -331 0
1 -3256 271 0
1 -3256 376 0
1 3256 -286 0
1 -3271 -377 0
1 3271 -346 0
1 3286 392 0
1 -3286 301 0
1 -3286 -286 0
1 361 -362 0
1 361 3211 0
1 361 3151 0
1 -361 3226 0
1 361 3166 0
1 376 375 0
1 391 -392 0
1 -391 3196 0
1 -406 -391 0
1 406 -3241 0
1 -406 -3181 0
1 -406 -405 0
1 406 -3256 0
1 -406 -3226 0
1 3181 -481 0
1 3181 391 0
1 3181 3182 0
1 3181 -406 0
1 -3196 -331 0
1 -3196 -346 0
1 -3211 481 0
1 -3211 -361 0
1 -3211 3210 0
1 -3211 -3212 0
1 3211 -496 0
1 3226 -3211 0
1 3226 -466 0
1 3226 406 0
1 -3226 -3227 0
1 -420 -3106 0
1 -420 -421 0
1 -420 -3167 0
1 435 3137 0
1 450 3077 0
1 450 3152 0
1 450 -465 0
1 465 -3152 0
1 465 3031 0
1 -3122 -391 0
1 3122 -406 0
1 3122 -510 0
1 3137 -480 0
1 -3137 556 0
1 -3152 481 0
1 -3152 -556 0
1 3152 526 0
1 -3152 -3153 0
1 3152 406 0
1 -3167 -526 0
1 3167 -435 0
1 -3167 -406 0
1 -3167 -511 0
1 480 -3077 0
1 -480 495 0
1 -495 -3077 0
1 495 3016 0
1 495 3122 0
1 495 -3092 0
1 -510 3137 0
1 -510 3047 0
1 510 3017 0
1 -525 -3122 0
1 3062 -450 0
1 3062 495 0
1 3062 -3063 0
1 -3062 570 0
1 3077 -3076 0
1 3077 525 0
1 -3092 3093 0
1 -3107 480 0
1 3107 450 0
1 3107 525 0
1 -3107 3092 0
1 -540 3032 0
1 540 -541 0
1 555 3077 0
1 555 -3062 0
1 -570 3017 0
1 -585 -3047 0
1 -585 3017 0
1 585 570 0
1 3002 -3017 0
1 -3002 -3001 0
1 3017 3016 0
1 -3017 585 0
1 -3017 -510 0
1 -3032 675 0
1 -3032 -570 0
1 3032 510 0
1 3047 3046 0
1 -3047 -585 0
1 -3047 -600 0
1 3047 570 0
1 -3047 540 0
1 63 -3690 0
1 -63 -78 0
1 -78 3660 0
1 78 3675 0
1 -93 3690 0
1 -93 -3705 0
1 108 -3660 0
1 -108 -109 0
1 -108 3705 0
1 108 -3615 0
1 -3660 168 0
1 3660 153 0
1 -3675 -93 0
1 -3690 -108 0
1 3690 184 0
1 3690 -93 0
1 3705 -139 0
1 -3705 78 0
1 3705 93 0
1 -123 3525 0
1 -123 -3600 0
1 123 3510 0
1 123 -3615 0
1 138 3525 0
1 153 -168 0
1 -153 3660 0
1 168 3540 0
1 -168 -153 0
1 -3615 -168 0
1 3615 -183 0
1 -3630 108 0
1 -3630 184 0
1 3645 -108 0
1 -183 -3555 0
1 -183 3540 0
1 198 -199 0
1 198 -3495 0
1 198 3600 0
1 213 3585 0
1 213 -3540 0
1 -228 -3585 0
1 -228 3465 0
1 228 -3600 0
1 -228 -3481 0
1 -3540 -3555 0
1 -3540 303 0
1 3540 -242 0
1 3540 183 0
1 3540 287 0
1 3570 -228 0
1 3570 -303 0
1 -3570 -213 0
1 3585 -288 0
1 3585 3586 0
1 -3585 273 0
1 3585 -318 0
1 242 257 0
1 242 3465 0
1 242 3390 0
1 -257 -3555 0
1 257 -3526 0
1 257 3496 0
1 -257 -3405 0
1 -257 -3511 0
1 -257 -3481 0
1 272 -3496 0
1 272 3466 0
1 -272 271 0
1 -272 3540 0
1 272 -3511 0
1 287 3466 0
1 -287 -3451 0
1 -287 3390 0
1 3481 3496 0
1 3481 332 0
1 3481 -3482 0
1 -3496 3495 0
1 3496 3497 0
1 3496 363 0
1 3496 -302 0
1 -3511 -213 0
1 3526 303 0
1 3526 272 0
1 -3526 -348 0
1 -302 -3451 0
1 -317 -3436 0
1 -317 -3346 0
1 317 3421 0
1 332 333 0
1 -332 -3376 0
1 -347 -3331 0
1 -347 -332 0
1 347 -3346 0
1 347 3391 0
1 3421 422 0
1 -3421 -332 0
1 3421 -272 0
1 -3421 -3420 0
1 3421 3422 0
1 -3436 3437 0
1 3451 422 0
1 -3451 317 0
1 -3466 393 0
1 -362 -3301 0
1 362 3271 0
1 -362 -361 0
1 -362 363 0
1 362 3376 0
1 -377 -3436 0
1 -377 3286 0
1 377 -3391 0
1 -392 3302 0
1 -392 -3271 0
1 -392 3347 0
1 -407 3332 0
1 -407 3406 0
1 407 3376 0
1 407 406 0
1 -3361 -3360 0
1 3361 -392 0
1 3361 377 0
1 3376 -497 0
1 3391 482 0
1 -3391 -422 0
1 -3391 362 0
1 -3391 -497 0
1 -3406 -452 0
1 -3406 -3405 0
1 3406 437 0
1 -421 3361 0
1 -421 3241 0
1 421 -3256 0
1 -436 -3347 0
1 -436 437 0
1 -451 450 0
1 -451 3272 0
1 451 3376 0
1 451 3317 0
1 466 3347 0
1 -3302 392 0
1 -3317 -481 0
1 -3317 -421 0
1 -3317 -3302 0
1 3317 557 0
1 3317 -526 0
1 -3332 -482 0
1 3332 -421 0
1 3347 421 0
1 -3347 -3346 0
1 -481 -3272 0
1 -481 3242 0
1 -481 -3211 0
1 -481 3287 0
1 -481 -3196 0
1 496 3181 0
1 496 3317 0
1 511 3212 0
1 -511 -3182 0
1 511 -3197 0
1 -526 -3302 0
1 526 -3182 0
1 3242 -3243 0
1 -3242 556 0
1 -3242 -466 0
1 3257 3256 0
1 3272 481 0
1 3272 -616 0
1 -3272 -3273 0
1 -3272 -587 0
1 -3272 496 0
1 -3272 -601 0
1 -3287 481 0
1 3287 451 0
1 -3287 -557 0
1 -3287 -526 0
1 -3287 496 0
1 3287 466 0
1 3287 572 0
1 -541 3137 0
1 556 -3137 0
1 556 -3107 0
1 556 -3212 0
1 -556 -3197 0
1 -556 -3227 0
1 -571 -3168 0
1 571 -3153 0
1 571 -572 0
1 -3182 -615 0
1 -3182 -571 0
1 3197 661 0
1 -3212 541 0
1 3227 -526 0
1 3227 571 0
1 -600 3138 0
1 -600 3092 0
1 -600 -3062 0
1 -600 3032 0
1 -630 -3168 0
1 630 631 0
1 630 -3063 0
1 -630 3197 0
1 645 3138 0
1 645 -3078 0
1 645 -3123 0
1 -3123 3138 0
1 3123 -721 0
1 -3123 -660 0
1 -3138 -3137 0
1 -3138 3139 0
1 3138 586 0
1 -3138 -721 0
1 3138 690 0
1 -3138 660 0
1 -3153 3168 0
1 3153 645 0
1 -3153 630 0
1 3168 736 0
1 3168 3169 0
1 -3168 615 0
1 -3168 -691 0
1 -3168 -630 0
1 660 -3108 0
1 -675 676 0
1 -675 -3017 0
1 -675 -3123 0
1 675 3063 0
1 -690 3078 0
1 690 -3063 0
1 705 -3138 0
1 705 -3048 0
1 705 -3033 0
1 -3063 705 0
1 -3063 -780 0
1 -3063 -750 0
1 3078 -645 0
1 -3078 -750 0
1 3078 720 0
1 -3078 -3063 0
1 3093 645 0
1 3093 751 0
1 -3093 -721 0
1 -3108 3107 0
1 -3108 -3109 0
1 3108 -690 0
1 -720 -721 0
1 735 3018 0
1 735 -3063 0
1 -750 3048 0
1 750 751 0
1 3003 -705 0
1 3003 -855 0
1 -3003 -3002 0
1 3003 -3004 0
1 3018 -3019 0
1 3018 -735 0
1 -3033 720 0
1 -3048 3047 0
1 -3048 -765 0
1 64 3840 0
1 -64 -3885 0
1 64 -79 0
1 -64 -3870 0
1 79 64 0
1 94 -3810 0
1 94 -109 0
1 -94 -3885 0
1 -109 3855 0
1 -3840 -3855 0
1 -3840 -154 0
1 3855 3840 0
1 -3870 140 0
1 3885 3870 0
1 3885 -94 0
1 -124 3840 0
1 -124 -3780 0
1 -124 3690 0
1 124 -139 0
1 124 -3705 0
1 124 -125 0
1 -139 -3780 0
1 154 -3810 0
1 154 -3720 0
1 -154 -3855 0
1 -154 -3705 0
1 -154 -3735 0
1 -169 -3750 0
1 169 -168 0
1 169 3690 0
1 3780 -229 0
1 3780 184 0
1 3780 124 0
1 3795 3780 0
1 -3795 109 0
1 -3795 154 0
1 3810 -185 0
1 3825 -3826 0
1 3825 244 0
1 -3825 124 0
1 184 3765 0
1 -184 183 0
1 -184 185 0
1 199 -3660 0
1 199 3705 0
1 -214 -229 0
1 214 3735 0
1 214 3706 0
1 214 3676 0
1 -229 3765 0
1 229 3735 0
1 -229 3706 0
1 -3720 199 0
1 3720 -3721 0
1 3720 -214 0
1 -3720 -319 0
1 3735 -169 0
1 3735 -243 0
1 -3750 -169 0
1 3750 304 0
1 -3750 244 0
1 3765 -289 0
1 -3765 -3750 0
1 -3765 -154 0
1 -243 -3661 0
1 -243 -3570 0
1 243 -244 0
1 -258 243 0
1 -273 -3735 0
1 288 -3631 0
1 -288 -3735 0
1 -3661 364 0
1 -3661 333 0
1 3661 -243 0
1 3661 -348 0
1 3676 -229 0
1 -3676 -243 0
1 3676 -214 0
1 -3691 -258 0
1 3691 -3690 0
1 3691 -349 0
1 3706 -258 0
1 -3706 -273 0
1 -303 3631 0
1 -303 3511 0
1 303 -3676 0
1 318 -3616 0
1 -333 332 0
1 333 -3511 0
1 -348 3556 0
1 348 3526 0
1 -348 3601 0
1 348 3571 0
1 348 -349 0
1 -3601 -393 0
1 -3601 3602 0
1 3601 -348 0
1 3616 333 0
1 -3616 378 0
1 3616 -348 0
1 3616 -318 0
1 -3631 333 0
1 -3631 -409 0
1 3646 -333 0
1 3646 -409 0
1 -3646 348 0
1 -363 -364 0
1 -363 3601 0
1 378 3526 0
1 -378 3496 0
1 -378 3601 0
1 -378 -377 0
1 -393 -3616 0
1 393 394 0
1 393 3601 0
1 -393 -3482 0
1 -408 -3527 0
1 408 -3497 0
1 -3541 483 0
1 3541 -422 0
1 -3541 333 0
1 -3541 -437 0
1 -3541 -3542 0
1 3541 -408 0
1 -3556 -3555 0
1 3556 363 0
1 -3556 -498 0
1 3556 3541 0
1 -3571 -363 0
1 3571 333 0
1 -3571 -3572 0
1 -3571 348 0
1 3586 -423 0
1 3586 -393 0
1 -3586 3571 0
1 -422 -421 0
1 -422 -3541 0
1 422 -3451 0
1 437 -422 0
1 437 -3497 0
1 -437 -3466 0
1 437 -3512 0
1 452 3437 0
1 452 -3422 0
1 452 -3391 0
1 -467 3556 0
1 -467 3422 0
1 -3482 -422 0
1 3482 -408 0
1 -3482 3483 0
1 3497 -452 0
1 -3497 -3498 0
1 3497 -437 0
1 3497 408 0
1 3512 452 0
1 3527 3512 0
1 3527 -393 0
1 -3527 -467 0
1 -482 481 0
1 482 3361 0
1 -497 482 0
1 -497 496 0
1 -497 -3347 0
1 497 3452 0
1 512 3437 0
1 -512 3452 0
1 512 -3422 0
1 527 -3452 0
1 -3422 -602 0
1 3422 -3423 0
1 -3437 -587 0
1 3437 -497 0
1 3437 602 0
1 -3452 -617 0
1 -3452 -527 0
1 3467 452 0
1 -3467 543 0
1 -557 3332 0
1 557 -3272 0
1 -3362 677 0
1 3362 616 0
1 3362 -631 0
1 3377 -616 0
1 3377 -557 0
1 -3377 662 0
1 3377 -572 0
1 -3392 617 0
1 3392 602 0
1 -3407 677 0
1 -3407 572 0
1 601 -3303 0
1 -601 3287 0
1 601 -602 0
1 601 3227 0
1 616 -3257 0
1 -616 -3318 0
1 -616 3287 0
1 631 -3288 0
1 646 3333 0
1 -646 -647 0
1 -3303 -646 0
1 3303 -3302 0
1 3303 -3304 0
1 3303 631 0
1 3303 601 0
1 3318 -3303 0
1 -3318 -722 0
1 3318 -3319 0
1 -3333 -601 0
1 3348 737 0
1 -3348 707 0
1 3348 616 0
1 3348 3347 0
1 661 3168 0
1 -661 676 0
1 -661 -3303 0
1 -661 3273 0
1 -661 3212 0
1 661 -3227 0
1 676 -677 0
1 -676 -3243 0
1 676 -3212 0
1 -676 -3182 0
1 676 -3288 0
1 691 -3243 0
1 -691 -690 0
1 -691 3198 0
1 706 3288 0
1 706 3198 0
1 -3243 -736 0
1 3243 646 0
1 -3243 -3244 0
1 3258 -676 0
1 -3258 661 0
1 -3258 -3257 0
1 -3273 -706 0
1 -3273 691 0
1 -3273 -796 0
1 -3288 -737 0
1 3288 -752 0
1 3288 -722 0
1 -3288 -661 0
1 -3288 767 0
1 -721 3138 0
1 721 -3108 0
1 721 3243 0
1 721 -722 0
1 -721 -3228 0
1 736 3168 0
1 -736 3138 0
1 -736 -3123 0
1 -736 3093 0
1 736 -3228 0
1 -751 -750 0
1 751 -3183 0
1 -766 -3213 0
1 -766 -3198 0
1 -3183 -780 0
1 3183 856 0
1 -3183 -3198 0
1 3198 706 0
1 -3198 -780 0
1 3198 825 0
1 -3213 796 0
1 -3228 -841 0
1 3228 -3213 0
1 3228 751 0
1 -3228 856 0
1 3228 -796 0
1 -3228 -766 0
1 780 -781 0
1 -780 3124 0
1 -780 -3093 0
1 -780 -3033 0
1 795 3169 0
1 -795 -3108 0
1 -795 3048 0
1 -795 780 0
1 -795 -3093 0
1 825 -3094 0
1 3124 751 0
1 3139 3140 0
1 3139 901 0
1 3139 -870 0
1 -3139 810 0
1 3139 780 0
1 -3154 886 0
1 3169 -901 0
1 -3169 -841 0
1 3169 -916 0
1 -855 -3139 0
1 855 -3048 0
1 -855 -3124 0
1 855 856 0
1 -870 3004 0
1 885 -3139 0
1 -885 -870 0
1 -885 -3094 0
1 3079 960 0
1 3079 -3078 0
1 3079 -810 0
1 3079 -885 0
1 3094 810 0
1 3094 -855 0
1 900 3004 0
1 915 -3049 0
1 -915 -3034 0
1 -915 -3004 0
1 930 3049 0
1 945 -3079 0
1 -3004 -915 0
1 3004 -3005 0
1 3019 3004 0
1 -3019 3018 0
1 -3034 960 0
1 -3034 975 0
1 -3034 -885 0
1 -3049 3048 0
1 3049 885 0
1 65 4035 0
1 -80 4035 0
1 95 4035 0
1 110 -4005 0
1 -110 -3990 0
1 -110 95 0
1 -4020 125 0
1 4035 170 0
1 4035 -4020 0
1 4050 110 0
1 -4065 -110 0
1 -4065 -80 0
1 -140 -3960 0
1 140 -3870 0
1 -155 3900 0
1 155 -3975 0
1 -155 154 0
1 170 4035 0
1 -170 3960 0
1 3960 -260 0
1 3960 -230 0
1 -3975 -200 0
1 -3975 -3976 0
1 -3975 3960 0
1 -3975 -155 0
1 -3975 -125 0
1 -3990 -245 0
1 3990 3991 0
1 4005 -110 0
1 4005 -3990 0
1 4005 95 0
1 185 3840 0
1 185 3975 0
1 185 -3915 0
1 200 -3810 0
1 200 3975 0
1 200 3885 0
1 200 3870 0
1 215 3825 0
1 215 214 0
1 215 -3900 0
1 -230 -3810 0
1 230 -3825 0
1 -3900 305 0
1 -3900 -244 0
1 3915 289 0
1 -3930 -3945 0
1 -3930 -305 0
1 3930 -275 0
1 3930 215 0
1 -3945 320 0
1 -3945 -305 0
1 3945 215 0
1 -3945 155 0
1 -244 243 0
1 -259 -3841 0
1 259 258 0
1 -259 3810 0
1 -259 -3856 0
1 274 -3750 0
1 -274 -3826 0
1 274 275 0
1 -289 3841 0
1 -289 3811 0
1 289 3781 0
1 -289 3871 0
1 3841 -289 0
1 3841 319 0
1 3856 -3841 0
1 3856 -334 0
1 3856 3857 0
1 -3856 -244 0
1 -3856 -319 0
1 3871 -230 0
1 3886 -289 0
1 -3886 -365 0
1 -3886 305 0
1 -304 -3841 0
1 304 -3811 0
1 304 -303 0
1 -304 -3796 0
1 -319 3735 0
1 319 3706 0
1 334 -3811 0
1 334 3691 0
1 334 -333 0
1 -334 3856 0
1 -349 3721 0
1 349 -3691 0
1 -349 -3826 0
1 -349 3706 0
1 -349 -348 0
1 3781 289 0
1 3781 -334 0
1 -3781 274 0
1 3781 379 0
1 3796 394 0
1 -3796 -3797 0
1 -3796 379 0
1 -3811 334 0
1 3811 319 0
1 -3826 -424 0
1 -3826 -395 0
1 -3826 3827 0
1 3826 -349 0
1 364 3781 0
1 364 -365 0
1 364 3631 0
1 364 3766 0
1 -379 3781 0
1 379 -3751 0
1 379 3691 0
1 379 -378 0
1 379 380 0
1 394 -393 0
1 394 3766 0
1 394 -409 0
1 394 3677 0
1 394 3646 0
1 409 3781 0
1 409 3751 0
1 409 -3766 0
1 -3721 349 0
1 -3736 423 0
1 -3736 349 0
1 3751 -484 0
1 3751 -3750 0
1 3751 424 0
1 3751 -334 0
1 3751 -3766 0
1 -3751 409 0
1 3766 -454 0
1 -3766 -3767 0
1 3766 3765 0
1 -423 424 0
1 423 -3601 0
1 423 3677 0
1 -438 3586 0
1 438 -3721 0
1 438 3662 0
1 438 3631 0
1 -453 3617 0
1 453 -3736 0
1 453 -3707 0
1 -453 -3647 0
1 -468 3662 0
1 -468 469 0
1 3662 453 0
1 -3662 528 0
1 3662 -3663 0
1 -3677 -423 0
1 -3677 -559 0
1 -3677 468 0
1 -3677 438 0
1 -3692 -544 0
1 -3692 514 0
1 -3692 -453 0
1 3692 423 0
1 3692 529 0
1 -3692 438 0
1 -3707 499 0
1 -3707 468 0
1 -483 -3527 0
1 -483 3662 0
1 483 3541 0
1 -498 3617 0
1 498 -3647 0
1 -513 3512 0
1 -513 -3647 0
1 528 529 0
1 528 -3512 0
1 -3602 -528 0
1 3602 -498 0
1 -3602 -3603 0
1 -3617 3616 0
1 3617 453 0
1 3617 618 0
1 -3617 -3602 0
1 -3617 468 0
1 -3617 543 0
1 -3632 559 0
1 3632 -528 0
1 3632 3631 0
1 -3632 -468 0
1 3632 -603 0
1 -3647 544 0
1 3647 483 0
1 -3647 589 0
1 -3647 559 0
1 3647 -3632 0
1 -3647 574 0
1 -543 3467 0
1 558 -3467 0
1 558 -559 0
1 558 3572 0
1 573 3467 0
1 573 3513 0
1 -588 3513 0
1 588 573 0
1 3542 -513 0
1 3542 -678 0
1 -3572 3587 0
1 3572 -678 0
1 -3572 3573 0
1 -3572 -663 0
1 -3587 -513 0
1 -3587 3586 0
1 -3587 3588 0
1 3587 -528 0
1 3587 -3572 0
1 -602 3407 0
1 602 -3452 0
1 -617 -3437 0
1 617 3542 0
1 632 -3498 0
1 632 3407 0
1 647 3528 0
1 -647 -3483 0
1 -647 -3423 0
1 3483 707 0
1 3483 -723 0
1 3483 662 0
1 3498 677 0
1 -3498 3499 0
1 3498 -662 0
1 3498 632 0
1 -3498 602 0
1 -3513 -663 0
1 -3513 602 0
1 -3528 -647 0
1 -3528 -602 0
1 -662 -661 0
1 -677 3468 0
1 692 -3438 0
1 -692 -3348 0
1 692 -3453 0
1 -3423 647 0
1 3423 -632 0
1 3423 -797 0
1 -3438 -3423 0
1 -3438 3437 0
1 3438 722 0
1 3453 -707 0
1 3453 662 0
1 -3468 -647 0
1 -722 -3438 0
1 -722 -3408 0
1 -722 721 0
1 -722 -3378 0
1 737 -3273 0
1 -737 -3423 0
1 -752 -3363 0
1 -752 -3273 0
1 -767 3363 0
1 -767 752 0
1 -767 -3288 0
1 -3363 -3364 0
1 3363 -842 0
1 -3363 811 0
1 3363 781 0
1 3363 692 0
1 -3363 826 0
1 -3378 -3363 0
1 3378 -752 0
1 -3393 707 0
1 -3393 -812 0
1 3393 -3408 0
1 -3408 707 0
1 3408 -812 0
1 3408 -3409 0
1 3408 -797 0
1 3408 -767 0
1 781 782 0
1 781 3288 0
1 781 -3258 0
1 -796 -3334 0
1 796 3304 0
1 796 3288 0
1 -796 3228 0
1 811 -3334 0
1 811 812 0
1 -811 -3228 0
1 826 -3334 0
1 -826 3274 0
1 -826 811 0
1 3304 -902 0
1 3304 3305 0
1 -3304 -781 0
1 3304 752 0
1 3334 -902 0
1 -3334 -3335 0
1 3334 -842 0
1 -3349 842 0
1 -3349 811 0
1 -3349 752 0
1 -3349 -887 0
1 -3349 -857 0
1 841 3169 0
1 841 -3274 0
1 -841 -3259 0
1 -841 3198 0
1 856 -3228 0
1 871 -870 0
1 871 -872 0
1 886 -3229 0
1 3244 841 0
1 3259 901 0
1 3259 -871 0
1 -3259 3258 0
1 -3259 -3260 0
1 -3274 917 0
1 3289 -961 0
1 -3289 902 0
1 3289 976 0
1 -3289 -856 0
1 901 -3169 0
1 901 3244 0
1 901 3214 0
1 901 -916 0
1 901 -3199 0
1 916 -917 0
1 -931 930 0
1 931 -946 0
1 -946 931 0
1 -946 3184 0
1 -946 945 0
1 946 -947 0
1 -946 3155 0
1 -946 3094 0
1 3184 3185 0
1 3199 -931 0
1 -3199 3184 0
1 -3199 886 0
1 3214 -931 0
1 3214 -3215 0
1 -3214 -916 0
1 -3229 871 0
1 -3229 976 0
1 960 -3079 0
1 975 3140 0
1 -975 -3109 0
1 -975 -976 0
1 -975 -3034 0
1 -990 -3049 0
1 -990 -3125 0
1 1005 -3110 0
1 1005 -3095 0
1 -1005 3034 0
1 3125 -975 0
1 3140 -960 0
1 3140 -1005 0
1 3155 931 0
1 3170 -3169 0
1 3170 -1066 0
1 -3170 990 0
1 -1020 3140 0
1 -1020 3125 0
1 -1020 -3065 0
1 -1020 -3034 0
1 1035 -3019 0
1 -1050 -3140 0
1 -1050 1065 0
1 -1065 3110 0
1 1065 -1066 0
1 -1065 -3005 0
1 -3065 1035 0
1 3065 -1005 0
1 3065 -1020 0
1 3080 -1125 0
1 -3110 1126 0
1 3110 -1005 0
1 -3110 -1050 0
1 -1080 3065 0
1 -1095 -3080 0
1 1095 3065 0
1 1095 3035 0
1 1125 -1126 0
1 -3005 -1065 0
1 3005 1080 0
1 3020 -1095 0
1 3020 1080 0
1 -3050 1065 0
1 -3050 -1110 0
1 -3050 -1050 0
1 245 4036 0
1 245 3975 0
1 -245 3945 0
1 260 259 0
1 -260 -4036 0
1 -260 4021 0
1 260 3960 0
1 275 -4066 0
1 275 -3945 0
1 -275 4051 0
1 290 -289 0
1 290 -4066 0
1 -290 4036 0
1 -290 4006 0
1 -4021 -4022 0
1 -4051 -275 0
1 -4066 -4065 0
1 4066 260 0
1 -4066 4067 0
1 -4066 -275 0
1 305 -3915 0
1 -305 -304 0
1 -305 3930 0
1 305 3900 0
1 305 -3871 0
1 -320 -3976 0
1 320 3871 0
1 -335 -4036 0
1 -335 3946 0
1 335 3916 0
1 -335 4021 0
1 -335 3991 0
1 -350 3901 0
1 -350 -3916 0
1 -350 3961 0
1 -3961 425 0
1 3961 -305 0
1 -3976 350 0
1 3991 -4006 0
1 -3991 305 0
1 4006 290 0
1 365 3826 0
1 -365 3871 0
1 380 -3976 0
1 -395 394 0
1 395 -3916 0
1 410 3961 0
1 410 3976 0
1 410 -409 0
1 -3901 365 0
1 3901 3902 0
1 -3901 -439 0
1 3901 380 0
1 -3916 -3915 0
1 -3916 3917 0
1 3916 380 0
1 3931 3932 0
1 3931 410 0
1 -3946 -485 0
1 3946 425 0
1 3946 3947 0
1 -3946 440 0
1 -424 -3872 0
1 -424 3751 0
1 -424 3916 0
1 -424 -3766 0
1 -439 3781 0
1 439 424 0
1 439 -438 0
1 454 3872 0
1 454 3751 0
1 -469 -3872 0
1 469 468 0
1 -469 -3766 0
1 469 3901 0
1 3842 -454 0
1 -3842 -424 0
1 3842 529 0
1 3842 -469 0
1 3857 484 0
1 -3857 -395 0
1 -3857 -439 0
1 -3872 3871 0
1 -3887 -515 0
1 3887 485 0
1 -3887 454 0
1 3887 560 0
1 484 -3782 0
1 484 3797 0
1 484 3707 0
1 499 -3857 0
1 514 -3827 0
1 -514 -3707 0
1 529 3752 0
1 -529 3857 0
1 529 -3767 0
1 529 -3737 0
1 -3782 -514 0
1 -3782 469 0
1 3782 604 0
1 3797 -454 0
1 3797 499 0
1 3812 -545 0
1 3812 3811 0
1 3812 -3813 0
1 3812 3827 0
1 3827 484 0
1 3827 -3812 0
1 3827 -499 0
1 -3827 -469 0
1 -544 -3752 0
1 544 -3632 0
1 559 544 0
1 -559 3632 0
1 559 -3767 0
1 -574 575 0
1 574 -3797 0
1 -574 3708 0
1 589 3678 0
1 589 -590 0
1 589 -3632 0
1 -589 3797 0
1 -589 -3737 0
1 -589 3708 0
1 3722 -3723 0
1 3722 3737 0
1 -3737 -648 0
1 -3737 3722 0
1 -3737 -574 0
1 3752 -3751 0
1 3767 544 0
1 3767 619 0
1 -3767 634 0
1 603 3617 0
1 -603 -602 0
1 -618 3722 0
1 -618 3663 0
1 618 3708 0
1 -633 -3663 0
1 -648 -3648 0
1 648 3722 0
1 648 -633 0
1 -3663 -739 0
1 3663 3664 0
1 -3663 -663 0
1 -3678 739 0
1 -3678 -708 0
1 3678 648 0
1 3678 618 0
1 -3678 -3663 0
1 -3678 3679 0
1 3693 -739 0
1 -3693 -618 0
1 3693 -724 0
1 3693 -694 0
1 3708 648 0
1 3708 -618 0
1 -3708 -3709 0
1 -3708 -574 0
1 663 3557 0
1 -663 3663 0
1 663 3633 0
1 -663 3513 0
1 -678 3557 0
1 678 -3663 0
1 678 -3542 0
1 678 -3513 0
1 -693 3588 0
1 -693 -3558 0
1 693 -3528 0
1 708 3618 0
1 708 3543 0
1 3618 -648 0
1 -3618 -753 0
1 3618 798 0
1 3633 3648 0
1 -3633 739 0
1 3633 -678 0
1 -3633 -648 0
1 -3648 769 0
1 -723 -738 0
1 723 -722 0
1 723 -724 0
1 -723 -3453 0
1 -738 -3618 0
1 -738 3588 0
1 738 3558 0
1 -738 3603 0
1 -738 3573 0
1 -738 -3543 0
1 753 -752 0
1 753 -3543 0
1 753 -3453 0
1 -768 -3588 0
1 768 -3558 0
1 -768 3529 0
1 -768 -3468 0
1 -3543 -3558 0
1 -3543 -693 0
1 3558 -3559 0
1 3558 723 0
1 -3573 -768 0
1 -3573 3588 0
1 3573 -783 0
1 3573 753 0
1 -3588 813 0
1 3588 753 0
1 3588 -858 0
1 -782 -3529 0
1 -782 3543 0
1 -797 3558 0
1 -797 3529 0
1 797 -3499 0
1 -797 3468 0
1 797 -3484 0
1 797 -3514 0
1 797 -3423 0
1 812 -3558 0
1 827 3424 0
1 -827 -3529 0
1 -827 3514 0
1 827 3543 0
1 -827 826 0
1 -3484 903 0
1 3484 3483 0
1 3484 887 0
1 -3484 -857 0
1 -3484 -797 0
1 3499 -753 0
1 -3514 -3513 0
1 -3529 -903 0
1 842 3424 0
1 842 -3378 0
1 -842 -3454 0
1 857 3408 0
1 857 3484 0
1 -872 3409 0
1 -872 -887 0
1 887 -3334 0
1 -887 -872 0
1 -887 -3499 0
1 -3424 -932 0
1 3424 -812 0
1 3424 917 0
1 -3424 -3423 0
1 -3439 887 0
1 -3454 962 0
1 -3454 -933 0
1 -3454 812 0
1 -3454 -977 0
1 3469 962 0
1 -3469 3470 0
1 902 3439 0
1 917 3304 0
1 -917 3379 0
1 932 3424 0
1 932 -3439 0
1 -932 -947 0
1 932 3350 0
1 -932 3289 0
1 -947 932 0
1 -947 -3335 0
1 947 -3350 0
1 3364 -976 0
1 -3364 -3379 0
1 -3394 -3393 0
1 3394 932 0
1 -3394 -902 0
1 3409 962 0
1 3409 -902 0
1 3409 947 0
1 -961 960 0
1 -961 962 0
1 -961 3320 0
1 976 3320 0
1 991 -1006 0
1 -991 3320 0
1 1006 -3335 0
1 1006 -3379 0
1 1006 3320 0
1 1006 3260 0
1 3305 -1066 0
1 -3320 -991 0
1 -3335 961 0
1 -3335 -1097 0
1 -3335 976 0
1 -3335 3350 0
1 -3350 3335 0
1 -3350 -1067 0
1 3350 -1052 0
1 1021 -1036 0
1 -1021 3184 0
1 1021 1020 0
1 -1021 -3229 0
1 -1036 3275 0
1 1036 -3229 0
1 1036 3290 0
1 1036 -3260 0
1 1051 3200 0
1 -1051 3170 0
1 -1051 -3290 0
1 -1051 -3260 0
1 -1051 3155 0
1 1051 1050 0
1 -1066 3155 0
1 -1066 3320 0
1 -1066 1051 0
1 -3245 3260 0
1 -3260 -3259 0
1 3260 991 0
1 -3290 -1051 0
1 3290 1021 0
1 -3290 991 0
1 1081 -1096 0
1 -1081 -3185 0
1 1096 1097 0
1 -1096 3185 0
1 1096 3125 0
1 1096 1081 0
1 -1096 3260 0
1 1111 -3110 0
1 -1111 1112 0
1 -1126 -3110 0
1 1126 -1111 0
1 3185 1081 0
1 3185 1051 0
1 3200 3199 0
1 -3215 3214 0
1 -3215 1081 0
1 3230 -1066 0
1 3230 1051 0
1 -3230 3229 0
1 -425 3946 0
1 440 -4067 0
1 -455 4067 0
1 -455 454 0
1 455 3962 0
1 -470 -4067 0
1 470 4007 0
1 -470 -4022 0
1 4022 485 0
1 -4022 -425 0
1 4022 -4021 0
1 -4022 -440 0
1 4037 485 0
1 4037 -500 0
1 4052 -440 0
1 -485 -3872 0
1 485 4007 0
1 485 -4022 0
1 -500 -3977 0
1 -515 -4007 0
1 515 -3947 0
1 515 3917 0
1 -515 3932 0
1 515 3902 0
1 -530 -3887 0
1 -530 529 0
1 530 -3962 0
1 -3962 545 0
1 -3962 -515 0
1 3962 455 0
1 -3977 -3976 0
1 -3977 -3978 0
1 -3977 -620 0
1 3977 560 0
1 4007 620 0
1 -545 3932 0
1 -545 3902 0
1 -560 -3872 0
1 -560 3812 0
1 -560 -3947 0
1 560 3887 0
1 -560 -3857 0
1 560 3932 0
1 560 -3902 0
1 575 3873 0
1 -575 3812 0
1 575 -3858 0
1 590 3873 0
1 590 3843 0
1 590 3917 0
1 -590 -3888 0
1 -590 -575 0
1 3902 -545 0
1 3902 -634 0
1 -3917 -680 0
1 -3917 -560 0
1 -3917 -665 0
1 3932 -620 0
1 3932 -3933 0
1 -3932 575 0
1 -3947 -650 0
1 3947 -3948 0
1 3947 590 0
1 -604 -3812 0
1 -604 -605 0
1 -619 3843 0
1 -619 3752 0
1 619 -618 0
1 619 3827 0
1 -619 3797 0
1 619 604 0
1 -634 -3783 0
1 634 -649 0
1 634 3888 0
1 -634 -3828 0
1 634 3767 0
1 -649 3813 0
1 649 -648 0
1 649 3828 0
1 -3843 -3858 0
1 -3843 -694 0
1 -3843 575 0
1 3858 740 0
1 -3858 709 0
1 3858 -664 0
1 -3858 634 0
1 3888 634 0
1 -3888 -604 0
1 -3888 575 0
1 -664 -3843 0
1 664 3813 0
1 664 3767 0
1 -679 680 0
1 -679 -3828 0
1 679 -3708 0
1 -694 -3783 0
1 -694 3828 0
1 -694 3798 0
1 694 3738 0
1 709 -3723 0
1 709 -3693 0
1 709 -694 0
1 -709 -3708 0
1 -3783 -754 0
1 -3783 694 0
1 -3798 664 0
1 -3798 799 0
1 -3813 -649 0
1 3828 -740 0
1 -724 -3783 0
1 -724 -3753 0
1 724 -3693 0
1 739 -3648 0
1 739 -738 0
1 739 3723 0
1 -739 -3663 0
1 739 3738 0
1 739 -3708 0
1 754 -3694 0
1 754 3709 0
1 754 -3679 0
1 -769 768 0
1 769 -3648 0
1 -769 -3709 0
1 -3723 739 0
1 -3723 709 0
1 3723 -694 0
1 3723 -798 0
1 -3738 769 0
1 3738 -783 0
1 -3738 694 0
1 3738 828 0
1 3753 -754 0
1 -3753 -859 0
1 3768 -3767 0
1 3768 3769 0
1 -3768 -859 0
1 783 -3723 0
1 -783 3633 0
1 783 -3603 0
1 798 3618 0
1 798 3709 0
1 -798 3633 0
1 798 -3603 0
1 -813 -3649 0
1 -813 -814 0
1 -813 3634 0
1 -813 3604 0
1 -813 -3573 0
1 813 3709 0
1 828 -3588 0
1 -828 -3664 0
1 828 3679 0
1 -3664 -783 0
1 -3664 3663 0
1 -3664 3665 0
1 3664 -3679 0
1 -3679 -813 0
1 3694 874 0
1 -3694 3693 0
1 -3694 -828 0
1 3709 -769 0
1 3709 783 0
1 858 843 0
1 858 -3543 0
1 -888 3559 0
1 -888 -873 0
1 -888 -3634 0
1 888 3544 0
1 3604 -813 0
1 3604 858 0
1 -3619 903 0
1 -3619 -948 0
1 3619 888 0
1 -3634 -904 0
1 -3634 -843 0
1 -3634 813 0
1 3649 873 0
1 -3649 -813 0
1 3649 978 0
1 3649 919 0
1 -903 -3619 0
1 -903 3589 0
1 918 -3619 0
1 -918 3589 0
1 918 3574 0
1 -918 -3484 0
1 918 -3454 0
1 -933 3589 0
1 933 -3500 0
1 933 -948 0
1 933 -3454 0
1 -948 -3619 0
1 948 3589 0
1 -948 -3530 0
1 -948 -3500 0
1 948 3469 0
1 948 947 0
1 948 -3485 0
1 -3544 -962 0
1 3544 948 0
1 -3559 3558 0
1 -3559 -3560 0
1 3559 888 0
1 3574 -993 0
1 3574 -1038 0
1 3574 1008 0
1 3574 -3575 0
1 3574 888 0
1 -3589 -903 0
1 -3589 1008 0
1 3589 -3574 0
1 -962 3559 0
1 962 3500 0
1 962 -3469 0
1 -977 -962 0
1 -977 -3530 0
1 977 3409 0
1 -977 978 0
1 992 -3425 0
1 992 -3559 0
1 -992 3500 0
1 992 3440 0
1 -1007 3394 0
1 -1007 3530 0
1 -1007 -3409 0
1 -1007 3515 0
1 -3485 1067 0
1 3485 1022 0
1 -3500 933 0
1 -3500 3499 0
1 3515 992 0
1 -3515 933 0
1 -3515 -1068 0
1 -3515 -977 0
1 3530 -992 0
1 3530 -1098 0
1 3530 1068 0
1 -3530 3515 0
1 -1022 3364 0
1 1037 3350 0
1 -1037 3485 0
1 -1037 -1022 0
1 1052 3335 0
1 1052 1051 0
1 -1067 3485 0
1 3440 1097 0
1 -3440 -1037 0
1 3440 3439 0
1 -3455 1083 0
1 -3470 -1067 0
1 -3470 1083 0
1 -3470 1052 0
1 -1082 3275 0
1 -1097 -3425 0
1 -1097 -3365 0
1 1097 3305 0
1 -1097 3440 0
1 1112 3440 0
1 -1112 3410 0
1 1127 3365 0
1 3365 -1127 0
1 -3380 -3379 0
1 -3395 1112 0
1 3410 -1112 0
1 -3410 1082 0
1 605 -4023 0
1 605 -3962 0
1 620 4038 0
1 620 -3932 0
1 635 -4008 0
1 635 3978 0
1 650 -4053 0
1 -650 -3993 0
1 4023 -620 0
1 4023 -4024 0
1 4038 -4039 0
1 4038 -650 0
1 -4038 -4023 0
1 4038 635 0
1 4038 -605 0
1 665 680 0
1 -665 3932 0
1 -680 665 0
1 -695 3933 0
1 -695 3903 0
1 -710 709 0
1 -710 3978 0
1 710 -3993 0
1 3963 800 0
1 3963 665 0
1 3978 770 0
1 3978 710 0
1 -3978 -3979 0
1 -3978 -665 0
1 3978 -635 0
1 -3993 710 0
1 -4008 -800 0
1 -4008 -650 0
1 -725 3948 0
1 740 -3843 0
1 740 3948 0
1 -755 3978 0
1 755 3859 0
1 770 -3874 0
1 -770 -3844 0
1 770 3963 0
1 770 3933 0
1 3903 3918 0
1 3903 784 0
1 3903 -829 0
1 -3918 -755 0
1 3918 -725 0
1 3918 -695 0
1 -3933 770 0
1 3933 710 0
1 -3933 695 0
1 -3948 800 0
1 3948 770 0
1 -3948 -740 0
1 3948 -3949 0
1 -3948 -725 0
1 -784 -3918 0
1 784 -3859 0
1 -784 -3798 0
1 784 799 0
1 -799 -3844 0
1 -799 784 0
1 -799 3889 0
1 814 3814 0
1 -814 3784 0
1 814 3889 0
1 -814 -3799 0
1 829 -3844 0
1 829 814 0
1 -829 3903 0
1 3844 770 0
1 -3844 3843 0
1 -3844 -905 0
1 3844 784 0
1 -3859 -905 0
1 -3859 -844 0
1 -3859 -889 0
1 3859 799 0
1 3874 -784 0
1 -3874 829 0
1 -3889 -770 0
1 3889 -905 0
1 3889 890 0
1 3889 -799 0
1 -844 -3844 0
1 -844 3784 0
1 844 -3753 0
1 -844 -3694 0
1 -844 -3859 0
1 844 -3709 0
1 -859 -3844 0
1 -859 -3814 0
1 -859 3753 0
1 -859 3799 0
1 859 860 0
1 874 3844 0
1 874 3814 0
1 -874 875 0
1 874 -3724 0
1 874 -3829 0
1 -889 874 0
1 889 3754 0
1 889 -3694 0
1 889 3829 0
1 -889 -3769 0
1 889 -3739 0
1 889 3709 0
1 3784 979 0
1 -3784 889 0
1 3814 905 0
1 3814 -950 0
1 -3814 -889 0
1 3814 829 0
1 -3829 -964 0
1 3829 935 0
1 3829 -979 0
1 -3829 -3828 0
1 -3829 950 0
1 3829 -829 0
1 904 -3649 0
1 -904 -903 0
1 904 -3784 0
1 -904 3724 0
1 904 3769 0
1 919 -3694 0
1 934 933 0
1 934 -3724 0
1 -949 3680 0
1 949 934 0
1 -949 -3754 0
1 949 3724 0
1 949 3695 0
1 -3724 -874 0
1 -3724 -3725 0
1 3724 -978 0
1 3724 -3739 0
1 3739 904 0
1 3754 -964 0
1 -3754 -934 0
1 -3754 889 0
1 -3769 -1024 0
1 3769 964 0
1 3769 934 0
1 -3769 -3754 0
1 -3769 1039 0
1 3769 3768 0
1 963 -3589 0
1 963 -3695 0
1 963 3634 0
1 -978 3634 0
1 993 -3680 0
1 993 -3695 0
1 -993 -1008 0
1 -993 3605 0
1 1008 -3695 0
1 3665 1023 0
1 3680 993 0
1 -3680 -1038 0
1 -3680 978 0
1 3695 3710 0
1 -3710 978 0
1 1023 3680 0
1 1023 -3620 0
1 1023 3665 0
1 1023 3635 0
1 1023 -3574 0
1 -1023 -3544 0
1 -1038 3589 0
1 1038 -3665 0
1 -1038 -3605 0
1 -1038 3574 0
1 1053 -3590 0
1 -1053 3515 0
1 1068 -3620 0
1 -1068 -3590 0
1 1068 3665 0
1 1068 -3575 0
1 -3605 -1113 0
1 -3605 -1083 0
1 3605 -1053 0
1 3605 1023 0
1 -3620 3605 0
1 -3620 -1053 0
1 3635 -1023 0
1 -3650 -3649 0
1 -3650 1129 0
1 3650 -1053 0
1 -1083 -3590 0
1 1083 -3560 0
1 -1083 3500 0
1 1083 3515 0
1 -1083 3455 0
1 -1098 -3620 0
1 1098 3590 0
1 -1098 3515 0
1 -1098 3575 0
1 -1098 3545 0
1 -1113 3620 0
1 1128 -3620 0
1 1128 -3605 0
1 -1128 3575 0
1 3545 3544 0
1 3560 -3559 0
1 -3560 -1053 0
1 -3575 -1053 0
1 785 -4008 0
1 785 -784 0
1 785 -3933 0
1 800 4039 0
1 800 3978 0
1 800 -3948 0
1 800 -3993 0
1 -815 3979 0
1 830 -4039 0
1 830 3948 0
1 -830 -4054 0
1 4024 -875 0
1 4024 785 0
1 4039 -815 0
1 4054 -4069 0
1 4054 -4055 0
1 4069 4068 0
1 -4069 -830 0
1 845 -4039 0
1 845 3918 0
1 -845 -860 0
1 845 3903 0
1 -860 3979 0
1 -860 -845 0
1 -860 -3948 0
1 -860 3889 0
1 860 -3994 0
1 -860 -859 0
1 -875 -4009 0
1 -875 3889 0
1 890 3904 0
1 -890 4039 0
1 890 -4009 0
1 -890 3889 0
1 -890 889 0
1 3964 -965 0
1 -3964 -875 0
1 3964 920 0
1 3964 890 0
1 3964 3963 0
1 -3979 815 0
1 3979 -980 0
1 3979 830 0
1 -4009 965 0
1 4009 4008 0
1 -4009 -875 0
1 -4009 -815 0
1 4009 860 0
1 905 3934 0
1 -920 3874 0
1 -920 3829 0
1 920 -919 0
1 -935 934 0
1 -935 3919 0
1 -935 -950 0
1 -935 -3964 0
1 935 -3934 0
1 950 -3890 0
1 950 949 0
1 -3904 -1025 0
1 3904 994 0
1 -3904 964 0
1 -3904 -950 0
1 3919 -994 0
1 3919 -905 0
1 3919 1009 0
1 -3934 -3949 0
1 -3934 -890 0
1 -3949 980 0
1 3949 890 0
1 3949 -3934 0
1 -964 -979 0
1 -979 -3875 0
1 979 3829 0
1 979 3769 0
1 -994 -3904 0
1 994 -1009 0
1 1009 3875 0
1 -1009 1008 0
1 -1009 -1010 0
1 1009 3800 0
1 1009 -3769 0
1 3845 994 0
1 -3845 -964 0
1 -3845 1069 0
1 -3845 3860 0
1 -3860 -1024 0
1 -3860 -1009 0
1 -3860 950 0
1 -3875 -1025 0
1 -3875 -994 0
1 3875 -3890 0
1 3875 979 0
1 -3890 -1025 0
1 3890 -935 0
1 3890 1100 0
1 -3890 1070 0
1 3890 1009 0
1 -3890 -1055 0
1 -1024 -3754 0
1 1024 -1023 0
1 1054 3845 0
1 -1069 -3815 0
1 1069 3695 0
1 1069 3830 0
1 3785 994 0
1 -3785 -1129 0
1 -3785 1039 0
1 3785 3800 0
1 3785 -1009 0
1 -3800 1129 0
1 3800 -1069 0
1 3800 1054 0
1 3815 -994 0
1 3815 -1130 0
1 -3815 -1069 0
1 -3815 1039 0
1 3815 -1115 0
1 -3830 -1069 0
1 -1084 -3755 0
1 1084 3770 0
1 -1084 3740 0
1 1084 -1085 0
1 1099 -3650 0
1 1099 1098 0
1 1099 -1100 0
1 1099 -3725 0
1 -1099 3770 0
1 -1099 1084 0
1 1114 3785 0
1 1114 3770 0
1 1129 1114 0
1 3725 -1069 0
1 -3755 1099 0
1 -3755 3770 0
1 3770 1099 0
1 -3770 1054 0
1 965 964 0
1 -965 -4070 0
1 965 3934 0
1 -980 -3979 0
1 980 4025 0
1 980 3964 0
1 -980 -3934 0
1 995 -3980 0
1 -995 1010 0
1 -995 -3995 0
1 1010 -4070 0
1 1010 1009 0
1 -1010 4025 0
1 1010 3934 0
1 4025 -1070 0
1 -4025 -980 0
1 -4040 1010 0
1 4055 4070 0
1 4055 -1010 0
1 -4055 4054 0
1 -4070 -965 0
1 -4070 1010 0
1 4070 4055 0
1 1025 3980 0
1 1025 -3919 0
1 1025 -4025 0
1 1055 -3890 0
1 1070 3905 0
1 -1070 4010 0
1 -1070 1069 0
1 1070 -3950 0
1 -1070 -3890 0
1 3980 -1070 0
1 3980 1040 0
1 -3980 -1085 0
1 3995 1025 0
1 3995 4010 0
1 4010 -1040 0
1 -1085 3905 0
1 1085 -3860 0
1 1100 1099 0
1 1100 -1085 0
1 1115 -3905 0
1 1115 3830 0
1 -1130 -3905 0
1 -3905 1130 0
1 3905 1100 0
1 3905 -1055 0
1 3920 1085 0
1 3935 -1115 0
1 3950 3949 0
1 3950 -1115 0
